#P GFINPUT IOP(6/7=3) B3LYP/3-21G SCF=(QC,MaxCycle=200) Opt Freq

title "R15"

0 1
C1
C2                   1    R1
C3                   2    R2       1    A1
C4                   2    R3       1    A2       3    D1       0
C5                   4    R4       2    A3       1    D2       0
H6                   1    R5       2    A4       3    D3       0
H7                   1    R6       2    A5       3    D4       0
H8                   1    R7       2    A6       3    D5       0
H9                   3    R8       2    A7       1    D6       0
H10                  3    R9       2    A8       1    D7       0
H11                  4    R10      2    A9       1    D8       0
H12                  4    R11      2    A10      1    D9       0
H13                  5    R12      4    A11      2    D10      0
H14                  5    R13      4    A12      2    D11      0
H15                  5    R14      4    A13      2    D12      0
     Variables:
R1                    1.54                     
R2                    1.31                     
R3                    1.54                     
R4                    1.54                     
R5                    1.1                      
R6                    1.1                      
R7                    1.1                      
R8                    1.1                      
R9                    1.1                      
R10                   1.1                      
R11                   1.1                      
R12                   1.1                      
R13                   1.1                      
R14                   1.1                      
A1                  120.                       
A2                 -120.                       
A3                 -120.                       
A4                  109.                       
A5                  109.                       
A6                  109.                       
A7                  120.                       
A8                  120.                       
A9                  120.                       
A10                 120.                       
A11                 109.                       
A12                 109.                       
A13                 109.                       
D1                    0.                       
D2                  180.                       
D3                  120.                       
D4                 -120.                       
D5                    0.                       
D6                  180.                       
D7                    0.                       
D8                  120.                       
D9                 -120.                       
D10                  60.                       
D11                 -60.                       
D12                 180.                       

